100
100
3000 3000 3000 3000 3000 3000 3000 3000 3000 3000 3000 3000 3000 3000 3000 3000 3000 3000 3000 3000 3000 3000 3000 3000 3000 3000 3000 3000 3000 3000 3000 3000 3000 3000 3000 3000 3000 3000 3000 3000 3000 3000 3000 3000 3000 3000 3000 3000 3000 3000 3000 3000 3000 3000 3000 3000 3000 3000 3000 3000 3000 3000 3000 3000 3000 3000 3000 3000 3000 3000 3000 3000 3000 3000 3000 3000 3000 3000 3000 3000 3000 3000 3000 3000 3000 3000 3000 3000 3000 3000 3000 3000 3000 3000 3000 3000 3000 3000 3000 3000
0 7 3
0 19 3
0 22 3
0 39 1
0 63 4
0 66 1
0 80 2
0 83 1
0 86 0
0 87 4
1 27 0
1 28 0
1 33 2
1 37 1
1 41 1
1 43 1
1 46 2
1 55 1
1 58 4
1 78 4
2 8 0
2 12 1
2 29 0
2 30 0
2 34 2
2 37 3
2 38 3
2 43 1
2 58 0
2 77 4
3 3 4
3 5 2
3 6 0
3 41 1
3 42 1
3 53 4
3 56 2
3 59 2
3 67 4
3 85 1
4 1 0
4 6 0
4 9 2
4 13 2
4 19 1
4 25 0
4 33 1
4 43 1
4 44 1
4 72 3
5 1 0
5 2 0
5 18 0
5 20 2
5 38 3
5 41 4
5 48 1
5 63 0
5 64 2
5 78 4
6 15 4
6 27 4
6 35 1
6 47 4
6 58 2
6 80 2
6 81 1
6 82 2
6 85 4
6 89 1
7 9 3
7 40 4
7 53 2
7 64 4
7 71 4
7 88 3
7 89 4
7 92 1
7 95 2
7 99 2
8 0 2
8 13 0
8 16 2
8 28 1
8 31 4
8 43 1
8 49 3
8 56 3
8 65 3
8 71 1
9 3 1
9 23 3
9 25 2
9 31 2
9 57 0
9 62 2
9 63 4
9 73 1
9 78 1
9 87 4
10 0 2
10 2 1
10 7 1
10 9 1
10 33 1
10 44 4
10 52 4
10 64 0
10 77 4
10 79 2
11 0 4
11 10 0
11 18 0
11 22 0
11 42 0
11 45 2
11 62 1
11 64 2
11 68 2
11 71 2
12 16 4
12 19 1
12 21 0
12 26 4
12 29 1
12 30 3
12 45 1
12 70 0
12 75 1
12 76 4
13 2 2
13 39 2
13 75 1
13 77 0
13 86 1
13 94 4
13 95 2
13 97 0
13 98 2
13 99 3
14 14 4
14 39 4
14 41 2
14 48 1
14 49 4
14 57 1
14 68 1
14 69 3
14 77 3
14 93 2
15 1 2
15 20 1
15 30 0
15 41 1
15 44 1
15 48 1
15 52 4
15 53 3
15 55 3
15 66 2
16 2 0
16 6 1
16 11 4
16 13 3
16 18 1
16 27 2
16 40 4
16 48 2
16 51 4
16 53 2
17 32 2
17 35 1
17 74 2
17 81 2
17 84 2
17 85 2
17 87 1
17 92 1
17 94 4
17 96 0
18 14 0
18 15 0
18 17 3
18 19 2
18 28 3
18 38 2
18 39 4
18 50 2
18 61 1
18 65 3
19 12 0
19 18 3
19 20 2
19 26 0
19 27 1
19 29 2
19 36 0
19 41 4
19 53 2
19 59 3
20 5 4
20 7 0
20 13 3
20 21 2
20 31 0
20 37 2
20 79 4
20 89 0
20 90 0
20 97 1
21 19 4
21 27 0
21 30 4
21 54 4
21 62 0
21 74 0
21 77 2
21 86 1
21 91 3
21 94 2
22 1 4
22 17 0
22 20 0
22 32 4
22 36 1
22 73 2
22 74 4
22 75 0
22 78 0
22 91 0
23 2 3
23 11 3
23 20 0
23 34 4
23 71 0
23 91 2
23 93 0
23 96 1
23 98 0
23 99 4
24 5 3
24 8 4
24 29 2
24 47 3
24 52 1
24 54 2
24 61 1
24 63 0
24 82 3
24 87 1
25 6 0
25 9 4
25 11 1
25 22 4
25 42 3
25 60 0
25 69 3
25 70 4
25 72 4
25 79 2
26 0 1
26 1 2
26 21 3
26 34 0
26 65 1
26 66 1
26 90 2
26 94 3
26 96 3
26 97 4
27 22 3
27 42 0
27 44 2
27 52 0
27 59 0
27 60 0
27 69 0
27 90 0
27 92 1
27 94 3
28 37 1
28 47 3
28 59 2
28 61 1
28 66 3
28 75 0
28 78 1
28 81 0
28 88 2
28 96 2
29 5 3
29 8 0
29 12 1
29 19 3
29 28 3
29 48 0
29 58 2
29 79 3
29 85 3
29 92 1
30 13 1
30 16 4
30 18 2
30 22 3
30 24 0
30 59 3
30 61 2
30 66 1
30 75 0
30 82 4
31 14 4
31 16 4
31 36 4
31 38 1
31 64 2
31 76 0
31 84 1
31 88 0
31 89 3
31 91 3
32 0 4
32 4 3
32 23 1
32 24 0
32 26 1
32 29 0
32 35 4
32 43 3
32 64 2
32 67 0
33 0 0
33 5 1
33 7 3
33 25 3
33 51 3
33 53 4
33 55 3
33 61 1
33 62 1
33 66 3
34 2 0
34 4 2
34 12 2
34 15 2
34 19 4
34 22 1
34 28 4
34 41 1
34 42 2
34 54 1
35 24 2
35 49 2
35 54 4
35 74 4
35 89 4
35 91 0
35 96 4
35 97 1
35 98 4
35 99 1
36 13 1
36 14 3
36 15 1
36 47 3
36 50 0
36 57 4
36 62 4
36 63 1
36 64 1
36 74 4
37 6 0
37 9 2
37 22 2
37 27 3
37 30 4
37 41 3
37 46 2
37 54 4
37 56 3
37 65 1
38 9 4
38 13 1
38 16 1
38 17 4
38 40 4
38 49 3
38 55 3
38 56 4
38 59 0
38 81 3
39 4 2
39 25 0
39 37 1
39 38 4
39 43 3
39 44 1
39 45 1
39 51 2
39 71 4
39 82 4
40 18 3
40 23 3
40 37 2
40 57 4
40 58 2
40 61 2
40 67 0
40 72 0
40 86 2
40 88 1
41 12 3
41 27 1
41 44 1
41 47 4
41 70 2
41 80 2
41 83 4
41 89 4
41 90 0
41 91 3
42 21 4
42 39 2
42 50 2
42 57 4
42 63 3
42 67 4
42 88 0
42 90 2
42 95 4
42 96 1
43 22 4
43 25 0
43 38 1
43 42 0
43 51 1
43 68 3
43 81 2
43 95 4
43 97 4
43 98 2
44 0 3
44 21 3
44 23 0
44 32 2
44 43 1
44 53 4
44 58 1
44 69 4
44 70 0
44 77 0
45 0 4
45 20 1
45 32 0
45 47 0
45 65 4
45 67 4
45 85 1
45 87 3
45 88 1
45 94 4
46 3 3
46 15 1
46 25 2
46 29 3
46 30 0
46 33 4
46 42 2
46 50 4
46 72 4
46 73 1
47 7 2
47 8 1
47 12 2
47 13 3
47 47 2
47 53 0
47 55 1
47 65 4
47 85 0
47 86 3
48 10 2
48 23 1
48 27 1
48 37 0
48 45 0
48 56 0
48 58 4
48 75 2
48 83 2
48 84 0
49 6 4
49 15 4
49 19 1
49 31 0
49 34 2
49 56 0
49 77 0
49 78 3
49 87 1
49 92 4
50 5 1
50 14 1
50 18 0
50 28 3
50 46 2
50 54 2
50 59 4
50 60 3
50 62 3
50 67 1
51 17 2
51 28 3
51 33 3
51 40 4
51 42 1
51 55 2
51 70 1
51 80 4
51 84 1
51 90 4
52 12 1
52 13 4
52 20 4
52 40 4
52 45 3
52 49 0
52 53 0
52 69 2
52 70 4
52 72 3
53 10 3
53 34 0
53 40 3
53 78 4
53 81 1
53 91 2
53 93 1
53 94 3
53 96 2
53 97 4
54 6 4
54 18 4
54 30 1
54 59 4
54 64 3
54 66 2
54 75 2
54 79 3
54 83 4
54 84 0
55 15 3
55 39 4
55 45 0
55 52 3
55 60 4
55 68 2
55 81 4
55 92 2
55 93 1
55 95 2
56 6 0
56 17 3
56 21 4
56 46 3
56 48 3
56 50 3
56 52 4
56 60 4
56 63 4
56 72 3
57 11 0
57 14 2
57 16 4
57 32 2
57 39 1
57 45 2
57 65 4
57 72 2
57 82 0
57 87 1
58 8 0
58 15 2
58 23 4
58 48 3
58 58 3
58 65 2
58 71 0
58 76 4
58 79 4
58 80 0
59 3 4
59 7 0
59 10 4
59 15 4
59 24 4
59 25 2
59 50 3
59 57 3
59 62 1
59 80 3
60 3 1
60 13 3
60 22 2
60 26 1
60 50 2
60 69 1
60 74 4
60 75 1
60 78 2
60 86 2
61 17 3
61 23 0
61 26 2
61 29 4
61 30 4
61 33 0
61 36 4
61 37 1
61 42 4
61 44 4
62 9 4
62 20 3
62 22 1
62 23 3
62 24 3
62 27 0
62 48 4
62 55 3
62 59 4
62 67 0
63 16 2
63 17 3
63 20 1
63 34 2
63 35 0
63 50 0
63 62 3
63 63 2
63 72 1
63 84 4
64 4 3
64 32 2
64 36 2
64 49 3
64 66 2
64 68 2
64 71 0
64 76 4
64 82 0
64 83 3
65 17 3
65 32 1
65 38 4
65 46 4
65 49 3
65 51 1
65 57 1
65 73 2
65 80 1
65 83 4
66 1 1
66 5 2
66 31 0
66 34 3
66 52 1
66 71 1
66 73 4
66 76 1
66 95 3
66 99 3
67 3 0
67 4 2
67 19 1
67 33 4
67 35 0
67 39 3
67 60 2
67 61 2
67 62 4
67 68 4
68 1 2
68 34 3
68 57 2
68 60 4
68 83 0
68 85 0
68 91 1
68 97 1
68 98 4
68 99 3
69 8 0
69 12 1
69 17 3
69 19 4
69 32 0
69 35 2
69 37 1
69 40 4
69 82 4
69 85 1
70 9 2
70 14 3
70 15 2
70 24 0
70 28 3
70 29 4
70 41 2
70 46 0
70 55 3
70 70 3
71 28 3
71 44 3
71 48 0
71 60 1
71 67 4
71 88 2
71 93 1
71 94 0
71 95 0
71 96 1
72 0 2
72 8 3
72 11 0
72 47 0
72 64 3
72 76 0
72 89 3
72 92 2
72 93 0
72 96 3
73 5 0
73 6 3
73 7 1
73 38 1
73 45 3
73 50 4
73 69 4
73 70 3
73 71 3
73 74 0
74 5 3
74 9 3
74 84 3
74 87 3
74 88 3
74 90 1
74 92 1
74 95 1
74 98 2
74 99 2
75 8 1
75 12 0
75 16 4
75 33 3
75 35 4
75 52 1
75 53 0
75 76 0
75 77 4
75 79 2
76 4 2
76 25 2
76 56 0
76 58 0
76 69 2
76 85 3
76 86 4
76 88 4
76 90 3
76 98 1
77 14 1
77 39 1
77 47 1
77 51 1
77 57 0
77 72 0
77 81 1
77 82 0
77 83 0
77 86 4
78 36 4
78 54 3
78 63 1
78 74 4
78 83 1
78 90 4
78 92 1
78 95 1
78 96 0
78 97 0
79 4 2
79 27 3
79 30 1
79 54 0
79 78 3
79 80 3
79 93 1
79 94 1
79 98 4
79 99 0
80 3 0
80 10 1
80 30 0
80 31 2
80 36 2
80 39 1
80 54 2
80 76 0
80 88 2
80 91 3
81 16 4
81 24 4
81 33 2
81 36 0
81 45 0
81 57 2
81 73 4
81 79 1
81 81 4
81 89 3
82 3 3
82 4 1
82 10 4
82 11 2
82 18 0
82 26 1
82 31 2
82 43 4
82 60 1
82 62 2
83 1 3
83 2 3
83 3 2
83 6 1
83 8 3
83 10 4
83 32 0
83 34 0
83 38 4
83 49 4
84 21 4
84 26 0
84 31 3
84 42 1
84 43 1
84 46 2
84 55 1
84 69 1
84 70 4
84 73 4
85 4 2
85 34 2
85 38 3
85 51 1
85 65 3
85 73 4
85 77 3
85 80 0
85 89 0
85 90 2
86 2 2
86 25 3
86 29 1
86 36 0
86 40 2
86 45 3
86 46 1
86 76 3
86 84 2
86 87 0
87 14 3
87 21 2
87 23 2
87 26 1
87 32 0
87 46 2
87 49 4
87 56 2
87 67 0
87 71 3
88 11 0
88 26 0
88 33 3
88 49 4
88 58 0
88 63 1
88 68 2
88 72 3
88 83 2
88 93 0
89 3 4
89 4 4
89 26 2
89 35 4
89 44 3
89 51 4
89 52 3
89 56 3
89 61 2
89 81 3
90 10 3
90 24 0
90 35 1
90 40 2
90 68 4
90 76 0
90 82 0
90 89 3
90 93 4
90 98 0
91 5 4
91 10 4
91 29 3
91 36 0
91 52 0
91 68 0
91 74 3
91 77 0
91 79 4
91 82 3
92 9 3
92 11 3
92 12 1
92 21 4
92 51 4
92 55 1
92 67 1
92 73 3
92 79 0
92 97 1
93 2 3
93 8 2
93 14 2
93 17 2
93 69 0
93 78 0
93 84 0
93 92 4
93 98 4
93 99 1
94 1 3
94 7 1
94 11 2
94 40 3
94 54 1
94 64 3
94 75 0
94 86 3
94 94 2
94 97 0
95 2 0
95 20 1
95 23 2
95 28 2
95 31 3
95 41 1
95 44 3
95 60 1
95 61 0
95 66 2
96 21 4
96 24 1
96 25 3
96 37 2
96 51 0
96 85 4
96 87 3
96 93 0
96 95 1
96 99 1
97 7 2
97 31 2
97 35 1
97 43 1
97 47 4
97 48 1
97 61 0
97 65 3
97 84 3
97 91 4
98 7 4
98 10 2
98 46 1
98 50 0
98 59 0
98 66 4
98 70 0
98 74 3
98 75 2
98 86 4
99 0 2
99 1 1
99 11 0
99 16 1
99 18 0
99 24 1
99 56 3
99 68 2
99 73 3
99 80 1
